row=8;
Board=[|-1,8,2,4,3,-1,-1,5,9,7|-1,-1,5,6,-1,-1,-1,-1,8,1|-1,3,-1,-1,5,7,-1,-1,-1,-1|5,4,-1,-1,-1,3,8,-1,-1,6|-1,8,-1,3,-1,-1,0,1,-1,7|-1,4,7,1,-1,-1,3,2,0,6|8,3,5,4,-1,6,-1,-1,7,-1|0,4,9,6,-1,5,-1,3,2,1|];
bottom=[38,34,36,28,38,40,36,32,41,37]